NAME : mtspf.pid15691.gtsp.177167575.tour
COMMENT : Length = 177167575
COMMENT : Found by LKH [Keld Helsgaun] Sat Jan  4 19:10:24 2025
TYPE : TOUR
DIMENSION : 123
TOUR_SECTION
1
11
8
9
10
5
6
7
4
63
60
61
62
90
91
88
89
50
51
48
49
3
45
46
47
44
74
75
72
73
114
115
112
113
79
76
77
78
68
69
70
71
81
82
83
80
24
25
26
27
32
33
34
35
105
106
107
104
54
55
52
53
65
66
67
64
121
122
123
120
2
12
13
14
15
119
116
117
118
100
101
102
103
95
92
93
94
110
111
108
109
30
31
28
29
22
23
20
21
39
36
37
38
58
59
56
57
42
43
40
41
18
19
16
17
97
98
99
96
85
86
87
84
-1
EOF
